NAME: tsp225
TYPE: TOUR
DIMENSION: 225
TOUR_SECTION
28
204
30
202
55
56
58
59
60
61
71
72
73
91
92
104
220
107
108
109
138
139
140
146
147
154
155
160
161
162
190
225
217
219
15
16
29
33
34
35
47
49
207
68
69
95
209
103
113
114
153
199
224
206
216
133
193
218
51
115
223
116
120
175
130
211
75
76
77
78
80
81
82
83
121
131
192
196
212
214
2
45
48
57
93
94
96
222
17
20
203
24
208
62
63
64
65
66
67
70
85
84
90
97
98
99
100
101
102
105
106
111
112
129
136
137
183
141
142
143
144
148
149
152
150
151
156
157
158
213
159
191
1
200
6
7
14
19
25
31
46
194
74
79
86
87
210
88
89
118
119
134
215
135
163
165
166
177
178
189
205
3
198
4
197
117
187
186
185
173
181
174
180
176
179
27
188
50
52
53
54
168
167
128
169
184
5
8
13
26
32
36
38
39
44
221
122
126
127
132
201
164
172
182
11
12
23
22
18
37
40
41
42
43
110
123
124
145
170
171
195
9
10
21
125
EOF